(set-info :status unknown)
(declare-fun %Y () (_ BitVec 32))
(declare-fun %X () (_ BitVec 32))
(assert
 (let (($x18652 (and (distinct (bvudiv ((_ zero_extend 6) %X) ((_ zero_extend 6) %Y)) ((_ zero_extend 6) (bvudiv %X %Y))) true)))
 (and (and (distinct ((_ zero_extend 6) %Y) (_ bv0 38)) true) $x18652)))
(check-sat)
